c instance by G2
c solution = 10010111000001010000111
c Known solution cost is 1311 
p cnf 23 30
w 66 73 4 77 38 47 85 62 93 66 82 82 95 1 89 9 77 33 16 60 78 73 5
9 6 3 0
8 17 -7 0
10 -22 1 0
19 -5 3 0
12 5 -2 0
15 11 -18 0
-15 -22 17 0
3 -21 22 0
-22 18 -9 0
9 -15 17 0
-6 17 -13 0
12 -17 6 0
1 -18 -14 0
-4 7 -6 0
11 -3 12 0
9 -8 21 0
13 -23 14 0
-1 -7 -10 0
-21 -9 23 0
10 12 16 0
13 -4 6 0
-12 -8 -6 0
-7 -11 3 0
16 -15 2 0
-14 2 23 0
-20 -22 19 0
14 18 -16 0
-19 20 -7 0
-14 -22 4 0
13 18 -17 0
